Problem:    
Rows:       260
Columns:    89 (72 integer, 72 binary)
Non-zeros:  974
Status:     INTEGER OPTIMAL
Objective:  value = 84.211191 (MINimum)

   No.   Row name        Activity     Lower bound   Upper bound
------ ------------    ------------- ------------- -------------
     1 r.5                   84.2112             0               
     2 r.6                   41.1476      -974.651               
     3 r.7                   1084.21             0               
     4 r.8                   -959.74       -962.34               
     5 r.9                   1084.21             0               
     6 r.10                  -958.66      -974.715               
     7 r.11                  84.2112             0               
     8 r.12                  41.3397      -962.016               
     9 r.13                  1084.21             0               
    10 r.14                 -998.052      -999.272               
    11 r.15                  84.2112             0               
    12 r.16                   41.334      -995.292               
    13 r.17                  1084.21             0               
    14 r.18                 -983.946      -998.735               
    15 r.19                  84.2112             0               
    16 r.20                  41.3397      -992.613               
    17 r.21                  1084.21             0               
    18 r.22                 -985.561       -987.86               
    19 r.23                  84.2112             0               
    20 r.24                 -979.728      -980.948               
    21 r.25                  1084.21             0               
    22 r.26                 -999.131      -999.131               
    23 r.27                  84.2112             0               
    24 r.28                 -997.546      -997.546               
    25 r.29                  1084.21             0               
    26 r.30                 -915.789      -957.129               
    27 r.31                  84.2112             0               
    28 r.32                  84.2112      -956.111               
    29 r.33                  84.2112             0               
    30 r.34                  84.2112      -952.693               
    31 r.35                  1084.21             0               
    32 r.36                 -915.789      -956.586               
    33 r.37                        1             1             = 
    34 r.38                        1             1             = 
    35 r.39                        1             1             = 
    36 r.40                        1             1             = 
    37 r.41                        1             1             = 
    38 r.42                        1             1             = 
    39 r.43                        1             1             = 
    40 r.44                        1             1             = 
    41 r.45                     1001             2               
    42 r.46                    -1001         -1001               
    43 r.47                  2000.54      -974.715               
    44 r.48                     1001             2               
    45 r.49                    -1001         -1001               
    46 r.50                  2000.54      -962.016               
    47 r.51                     1001             2               
    48 r.52                    -1001         -1001               
    49 r.53                  1961.15      -999.272               
    50 r.54                     1001             2               
    51 r.55                    -1001         -1001               
    52 r.56                  2000.54      -995.292               
    53 r.57                     1001             2               
    54 r.58                    -1001         -1001               
    55 r.59                  1975.26      -998.735               
    56 r.60                     1001             2               
    57 r.61                    -1001         -1001               
    58 r.62                  2000.54      -992.613               
    59 r.63                     1001             2               
    60 r.64                    -1001         -1001               
    61 r.65                  1973.64       -987.86               
    62 r.66                     1001             2               
    63 r.67                    -1001         -1001               
    64 r.68                  979.475      -980.948               
    65 r.69                  39.9277      -974.651               
    66 r.70                  -960.96       -962.34               
    67 r.71                  1039.23      -974.651               
    68 r.72                  38.3426       -962.34               
    69 r.73                 -956.586      -957.129               
    70 r.74                  43.4142      -956.111               
    71 r.75                 -956.586      -957.129               
    72 r.76                  43.4142      -956.111               
    73 r.77                  43.4142      -952.693               
    74 r.78                 -956.586      -956.586               
    75 r.79                  43.4142      -952.693               
    76 r.80                 -956.586      -956.586               
    77 r.81                     1001             2               
    78 r.82                    -1001         -1001               
    79 r.83                  1999.81       25.3486               
    80 r.84                     1001             2               
    81 r.85                    -1001         -1001               
    82 r.86                  1998.92       37.6602               
    83 r.87                        2             2               
    84 r.88                       -2         -1001               
    85 r.89                 -39.3914      -999.272               
    86 r.90                     1000             2               
    87 r.91                    -1000         -1001               
    88 r.92                  1999.99      -995.292               
    89 r.93                        2             2               
    90 r.94                       -2         -1001               
    91 r.95                 -25.2854      -998.735               
    92 r.96                     1000             2               
    93 r.97                    -1000         -1001               
    94 r.98                     2000      -992.613               
    95 r.99                        2             2               
    96 r.100                      -2         -1001               
    97 r.101                -26.9008       -987.86               
    98 r.102                    1000             2               
    99 r.103                   -1000         -1001               
   100 r.104                 978.933      -980.948               
   101 r.105                 -959.88      -974.715               
   102 r.106                 40.1197      -962.016               
   103 r.107                 39.4223      -974.715               
   104 r.108                 1039.42      -962.016               
   105 r.109                -957.129      -957.129               
   106 r.110                 42.8715      -956.111               
   107 r.111                -957.129      -957.129               
   108 r.112                 42.8715      -956.111               
   109 r.113                    1001             2               
   110 r.114                   -1001         -1001               
   111 r.115                 2042.87      -952.693               
   112 r.116                    1001             2               
   113 r.117                   -1001         -1001               
   114 r.118                 2042.87      -956.586               
   115 r.119                    1001             2               
   116 r.120                   -1001         -1001               
   117 r.121                 2038.85       25.3486               
   118 r.122                    1001             2               
   119 r.123                   -1001         -1001               
   120 r.124                 1999.46       37.6602               
   121 r.125                       2             2               
   122 r.126                      -2         -1001               
   123 r.127                 39.0408       25.2854               
   124 r.128                    1000             2               
   125 r.129                   -1000         -1001               
   126 r.130                 2000.54       37.9839               
   127 r.131                       2             2               
   128 r.132                      -2         -1001               
   129 r.133                -986.245      -998.735               
   130 r.134                    1000             2               
   131 r.135                   -1000         -1001               
   132 r.136                 2000.54      -992.613               
   133 r.137                       2             2               
   134 r.138                      -2         -1001               
   135 r.139                 -987.86       -987.86               
   136 r.140                    1000             2               
   137 r.141                   -1000         -1001               
   138 r.142                 979.475      -980.948               
   139 r.143                -999.272      -999.272               
   140 r.144                 40.1141      -995.292               
   141 r.145                  0.0309      -999.272               
   142 r.146                 1039.42      -995.292               
   143 r.147                -918.088      -957.129               
   144 r.148                 81.9123      -956.111               
   145 r.149                -956.586      -957.129               
   146 r.150                 43.4142      -956.111               
   147 r.151                 81.9123      -952.693               
   148 r.152                -918.088      -956.586               
   149 r.153                 43.4142      -952.693               
   150 r.154                -956.586      -956.586               
   151 r.155                    1001             2               
   152 r.156                   -1001         -1001               
   153 r.157                 2025.09       25.3486               
   154 r.158                    1001             2               
   155 r.159                   -1001         -1001               
   156 r.160                 1998.92       37.6602               
   157 r.161                       2             2               
   158 r.162                      -2         -1001               
   159 r.163                 25.2854       25.2854               
   160 r.164                    1000             2               
   161 r.165                   -1000         -1001               
   162 r.166                    2000       37.9839               
   163 r.167                       2             2               
   164 r.168                      -2         -1001               
   165 r.169                 985.894        0.7283               
   166 r.170                    1000             2               
   167 r.171                   -1000         -1001               
   168 r.172                 1999.99       4.70757               
   169 r.173                       2             2               
   170 r.174                      -2         -1001               
   171 r.175                -1.61544       -987.86               
   172 r.176                    1000             2               
   173 r.177                   -1000         -1001               
   174 r.178                 978.933      -980.948               
   175 r.179                -985.166      -998.735               
   176 r.180                 40.1197      -992.613               
   177 r.181                  14.137      -998.735               
   178 r.182                 1039.42      -992.613               
   179 r.183                -931.843      -957.129               
   180 r.184                 68.1569      -956.111               
   181 r.185                -957.129      -957.129               
   182 r.186                 42.8715      -956.111               
   183 r.187                    1001             2               
   184 r.188                   -1001         -1001               
   185 r.189                 2068.16      -952.693               
   186 r.190                    1001             2               
   187 r.191                   -1001         -1001               
   188 r.192                 2042.87      -956.586               
   189 r.193                    1001             2               
   190 r.194                   -1001         -1001               
   191 r.195                 2026.36       25.3486               
   192 r.196                    1001             2               
   193 r.197                   -1001         -1001               
   194 r.198                 3020.52       37.6602               
   195 r.199                       2             2               
   196 r.200                      -2         -1001               
   197 r.201                 26.5502       25.2854               
   198 r.202                    1000             2               
   199 r.203                   -1000         -1001               
   200 r.204                  3021.6       37.9839               
   201 r.205                       2             2               
   202 r.206                      -2         -1001               
   203 r.207                 987.159        0.7283               
   204 r.208                    1000             2               
   205 r.209                   -1000         -1001               
   206 r.210                  3021.6       4.70757               
   207 r.211                       2             2               
   208 r.212                      -2         -1001               
   209 r.213                  1.2648        1.2648               
   210 r.214                    1000             2               
   211 r.215                   -1000         -1001               
   212 r.216                  3021.6       7.38697               
   213 r.217                -986.781       -987.86               
   214 r.218                -980.948      -980.948               
   215 r.219                 12.5215       -987.86               
   216 r.220                  18.355      -980.948               
   217 r.221                       2             2               
   218 r.222                      -2         -1001               
   219 r.223                -930.578      -957.129               
   220 r.224                    1000             2               
   221 r.225                   -1000         -1001               
   222 r.226                 3064.48      -956.111               
   223 r.227                 69.4217      -952.693               
   224 r.228                -930.578      -956.586               
   225 r.229                 1064.48      -952.693               
   226 r.230                 64.4759      -956.586               
   227 r.231                -917.009      -957.129               
   228 r.232                 82.9912      -956.111               
   229 r.233                 82.2938      -957.129               
   230 r.234                 1082.29      -956.111               
   231 r.235                       2             2               
   232 r.236                      -2         -1001               
   233 r.237                 930.228         12.14               
   234 r.238                    1000             2               
   235 r.239                   -1000         -1001               
   236 r.240                 936.061       19.0524               
   237 r.241                    1001             2               
   238 r.242                   -1001         -1001               
   239 r.243                    2000      -952.693               
   240 r.244                    1001             2               
   241 r.245                   -1001         -1001               
   242 r.246                    2000      -956.586               
   243 r.247                    1001             2               
   244 r.248                   -1001         -1001               
   245 r.249                 1957.13       25.2854               
   246 r.250                    1001             2               
   247 r.251                   -1001         -1001               
   248 r.252                 1957.13       37.9839               
   249 r.253                    1001             2               
   250 r.254                   -1001         -1001               
   251 r.255                 1931.84        1.2648               
   252 r.256                    1001             2               
   253 r.257                   -1001         -1001               
   254 r.258                 1957.13       7.38697               
   255 r.259                    1001             2               
   256 r.260                   -1001         -1001               
   257 r.261                    2000       42.8715               
   258 r.262                    1001             2               
   259 r.263                   -1001         -1001               
   260 r.264                    2000       43.8886               

   No. Column name       Activity     Lower bound   Upper bound
------ ------------    ------------- ------------- -------------
     1 tt                    84.2112             0               
     2 s_1_1        *              0             0             1 
     3 t_1_1                 43.4142             0               
     4 s_1_8        *              0             0             1 
     5 s_1_7        *              1             0             1 
     6 s_2_1        *              1             0             1 
     7 t_2_1                 43.4142             0               
     8 s_2_8        *              1             0             1 
     9 s_2_7        *              0             0             1 
    10 s_1_2        *              1             0             1 
    11 t_1_2                 42.8715             0               
    12 s_2_2        *              0             0             1 
    13 t_2_2                 42.8715             0               
    14 s_1_3        *              1             0             1 
    15 t_1_3                 81.9123             0               
    16 s_2_3        *              0             0             1 
    17 t_2_3                 43.4142             0               
    18 s_1_4        *              1             0             1 
    19 t_1_4                 68.1569             0               
    20 s_2_4        *              0             0             1 
    21 t_2_4                 42.8715             0               
    22 s_1_5        *              1             0             1 
    23 t_1_5                 69.4217             0               
    24 s_2_5        *              0             0             1 
    25 t_2_5                 1064.48             0               
    26 s_1_6        *              1             0             1 
    27 t_1_6                 82.9912             0               
    28 s_2_6        *              0             0             1 
    29 t_2_6                 1082.29             0               
    30 t_1_7                       0             0               
    31 t_2_7                       0             0               
    32 t_1_8                       0             0               
    33 t_2_8                       0             0               
    34 r_1_1_2      *              1             0             1 
    35 u_1_1_2      *              0             0             1 
    36 r_2_1_2      *              1             0             1 
    37 u_2_1_2      *              0             0             1 
    38 r_1_1_3      *              1             0             1 
    39 u_1_1_3      *              0             0             1 
    40 r_2_1_3      *              1             0             1 
    41 u_2_1_3      *              0             0             1 
    42 r_1_1_4      *              1             0             1 
    43 u_1_1_4      *              0             0             1 
    44 r_2_1_4      *              1             0             1 
    45 u_2_1_4      *              0             0             1 
    46 r_1_1_5      *              1             0             1 
    47 u_1_1_5      *              0             0             1 
    48 r_2_1_5      *              1             0             1 
    49 u_2_1_5      *              0             0             1 
    50 r_1_2_3      *              0             0             1 
    51 u_1_2_3      *              0             0             1 
    52 r_2_2_3      *              1             0             1 
    53 u_2_2_3      *              0             0             1 
    54 r_1_2_4      *              0             0             1 
    55 u_1_2_4      *              0             0             1 
    56 r_2_2_4      *              1             0             1 
    57 u_2_2_4      *              0             0             1 
    58 r_1_2_5      *              0             0             1 
    59 u_1_2_5      *              0             0             1 
    60 r_2_2_5      *              1             0             1 
    61 u_2_2_5      *              0             0             1 
    62 r_1_2_8      *              1             0             1 
    63 u_1_2_8      *              0             0             1 
    64 r_2_2_8      *              1             0             1 
    65 u_2_2_8      *              0             0             1 
    66 r_1_3_4      *              0             0             1 
    67 u_1_3_4      *              1             0             1 
    68 r_2_3_4      *              1             0             1 
    69 u_2_3_4      *              0             0             1 
    70 r_1_3_5      *              0             0             1 
    71 u_1_3_5      *              1             0             1 
    72 r_2_3_5      *              1             0             1 
    73 u_2_3_5      *              0             0             1 
    74 r_1_4_5      *              0             0             1 
    75 u_1_4_5      *              0             0             1 
    76 r_2_4_5      *              1             0             1 
    77 u_2_4_5      *              0             0             1 
    78 r_1_4_8      *              1             0             1 
    79 u_1_4_8      *              0             0             1 
    80 r_2_4_8      *              1             0             1 
    81 u_2_4_8      *              0             0             1 
    82 r_1_5_7      *              0             0             1 
    83 u_1_5_7      *              1             0             1 
    84 r_2_5_7      *              1             0             1 
    85 u_2_5_7      *              0             0             1 
    86 r_1_7_8      *              1             0             1 
    87 u_1_7_8      *              0             0             1 
    88 r_2_7_8      *              1             0             1 
    89 u_2_7_8      *              0             0             1 

Integer feasibility conditions:

KKT.PE: max.abs.err = 2.27e-13 on row 20
        max.rel.err = 1.07e-16 on row 20
        High quality

KKT.PB: max.abs.err = 1.14e-13 on row 214
        max.rel.err = 2.65e-15 on row 209
        High quality

End of output
